&control
  calculation='scf'
  prefix='runqe'
  pseudo_dir='PSEUDO_DIR'
  outdir='./out'
  restart_mode='from_scratch'
  max_seconds=3400
  tstress=.true.
  tprnfor=.true.
/
&system
  ibrav=0
  nat=<NATOMS>
  ntyp=<NTYPE>
  ecutwfc=20
  ecutrho=160
/
&electrons
  electron_maxstep = 1000
  mixing_beta = 0.5
  conv_thr = 1.D-6
/
&ions
/
&cell
/
ATOMIC_SPECIES
 Si 1.0 Si.pbe-n-rrkjus_psl.1.0.0.UPF
CELL_PARAMETERS {angstrom}
<CELL_PARAMETERS>
ATOMIC_POSITIONS {angstrom}
<ATOMIC_POSITIONS>
