pair_style snap
pair_coeff * * mlearn_Si.snapcoeff mlearn_Si.snapparam Si
